 C Li 
 1.0000000000000000
     3.7065000000000001    2.1399487727513478    0.0000000000000000
    -3.7065000000000001    2.1399487727513478    0.0000000000000000
     0.0000000000000000    0.0000000000000000    3.7000000000000002
 C   Li 
   6   1
Cartesian
  0.0000000000000000 -0.0010147741280417  0.0000000000000000
  1.2363789062555137  0.7128093753703439  0.0000000000000000
 -1.2363785416130837  2.1404558674907777  0.0000000000000000
  0.0000000000000006  2.8542793029397853  0.0000000000000000
  1.2363785416130852  2.1404558674907777  0.0000000000000000
 -1.2363789062555131  0.7128093753703438  0.0000000000000000
  0.0000000000000000  1.4266325257409513  1.8500000000000001
