 C Li 
 1.0000000000000000
     3.7713016363097944    2.1773620149187360    0.0000000000000000
    -3.7713016363097944    2.1773620149187360    0.0000000000000000
     0.0000000000000000    0.0000000000000000    3.7000000000000002
 C   Li 
   6   2
Cartesian
  0.0028416372141871 -0.0016406200105502  0.0000000000000000
  1.2571004405970985  0.7225062765246726  0.0000000000000000
 -1.2599419805006029  2.1757214433405632  0.0000000000000000
  0.0028414304344783  2.9047899749094377  0.0000000000000000
  1.2571006045680209  2.1806430556564540  0.0000000000000000
 -1.2599421438818399  0.7274279359335348  0.0000000000000000
  0.0000000107628832  1.4515746968516428  1.8500000000000001
  2.5142010787270177  1.4515746571719843  1.8500000000000001
