 C Li 
 1.0000000000000000
     5.6988920704119117    0.0000000000000000    0.0000000000000000
    -2.8494460352059559    4.9353853064024111    0.0000000000000000
     0.0000000000000000    0.0000000000000000    3.7000000000000002
 C   Li 
   8   1
Cartesian
  0.0000000000000000 -0.0230273521352929  0.0000000000000000
  1.4446654979532381  0.8110505763286832  0.0000000000000000
 -1.4446655036180025  2.4792063063466330  0.0000000000000000
  0.0000000000000003  3.3132843105511496  0.0000000000000000
  2.8494460352059554  0.0000000554357783  0.0000000000000000
  4.2542265724586743  0.8110505763286832  0.0000000000000000
  1.4446655036180025  2.4792063063466330  0.0000000000000000
  2.8494460352059559  3.2902568014538143  0.0000000000000000
  0.0000000000000000  1.6451284294597801  1.8500000000000001
